33
1 0 50
2 0 38
2 1 37
3 0 48
3 1 3
3 2 4
4 0 4
4 1 9
4 2 9
4 3 25
5 0 12
5 1 33
5 2 10
5 3 31
5 4 32
6 0 5
6 1 38
6 2 6
6 3 14
6 4 25
6 5 38
7 0 53
7 1 22
7 2 55
7 3 29
7 4 59
7 5 7
7 6 48
8 0 54
8 1 7
8 2 51
8 3 4
8 4 56
8 5 60
8 6 49
8 7 34
9 0 62
9 1 17
9 2 4
9 3 59
9 4 6
9 5 9
9 6 17
9 7 33
9 8 64
10 0 58
10 1 58
10 2 28
10 3 12
10 4 15
10 5 10
10 6 58
10 7 5
10 8 58
10 9 40
11 0 48
11 1 37
11 2 64
11 3 44
11 4 5
11 5 40
11 6 3
11 7 45
11 8 28
11 9 65
11 10 27
12 0 32
12 1 1
12 2 8
12 3 38
12 4 57
12 5 61
12 6 28
12 7 40
12 8 29
12 9 35
12 10 11
12 11 44
13 0 41
13 1 4
13 2 10
13 3 15
13 4 56
13 5 23
13 6 64
13 7 50
13 8 22
13 9 29
13 10 60
13 11 46
13 12 49
14 0 2
14 1 11
14 2 5
14 3 51
14 4 19
14 5 29
14 6 8
14 7 39
14 8 39
14 9 3
14 10 50
14 11 21
14 12 62
14 13 46
15 0 55
15 1 12
15 2 14
15 3 6
15 4 18
15 5 21
15 6 46
15 7 44
15 8 48
15 9 50
15 10 22
15 11 9
15 12 30
15 13 30
15 14 37
16 0 62
16 1 14
16 2 28
16 3 2
16 4 31
16 5 48
16 6 8
16 7 13
16 8 47
16 9 53
16 10 54
16 11 54
16 12 54
16 13 10
16 14 39
16 15 51
17 0 42
17 1 40
17 2 64
17 3 40
17 4 17
17 5 25
17 6 42
17 7 6
17 8 4
17 9 14
17 10 40
17 11 11
17 12 56
17 13 46
17 14 44
17 15 35
17 16 10
18 0 37
18 1 22
18 2 39
18 3 29
18 4 58
18 5 12
18 6 23
18 7 26
18 8 17
18 9 37
18 10 40
18 11 63
18 12 63
18 13 5
18 14 47
18 15 65
18 16 52
18 17 16
19 0 35
19 1 62
19 2 9
19 3 9
19 4 12
19 5 38
19 6 18
19 7 12
19 8 13
19 9 50
19 10 21
19 11 13
19 12 54
19 13 60
19 14 63
19 15 23
19 16 42
19 17 48
19 18 1
20 0 48
20 1 53
20 2 56
20 3 29
20 4 46
20 5 38
20 6 8
20 7 42
20 8 6
20 9 52
20 10 16
20 11 37
20 12 1
20 13 51
20 14 8
20 15 25
20 16 62
20 17 34
20 18 14
20 19 59
21 0 9
21 1 9
21 2 34
21 3 26
21 4 40
21 5 20
21 6 22
21 7 9
21 8 26
21 9 45
21 10 32
21 11 28
21 12 37
21 13 58
21 14 8
21 15 63
21 16 25
21 17 21
21 18 60
21 19 3
21 20 43
22 0 2
22 1 30
22 2 48
22 3 52
22 4 29
22 5 5
22 6 3
22 7 44
22 8 28
22 9 27
22 10 52
22 11 51
22 12 18
22 13 43
22 14 42
22 15 41
22 16 30
22 17 56
22 18 37
22 19 17
22 20 14
22 21 10
23 0 45
23 1 16
23 2 19
23 3 36
23 4 11
23 5 50
23 6 44
23 7 47
23 8 50
23 9 20
23 10 47
23 11 1
23 12 65
23 13 23
23 14 12
23 15 21
23 16 21
23 17 6
23 18 24
23 19 61
23 20 39
23 21 55
23 22 54
24 0 19
24 1 40
24 2 52
24 3 48
24 4 15
24 5 47
24 6 21
24 7 57
24 8 15
24 9 48
24 10 63
24 11 34
24 12 46
24 13 38
24 14 54
24 15 1
24 16 27
24 17 28
24 18 55
24 19 48
24 20 28
24 21 15
24 22 25
24 23 35
25 0 23
25 1 1
25 2 63
25 3 12
25 4 38
25 5 15
25 6 17
25 7 10
25 8 65
25 9 4
25 10 25
25 11 50
25 12 12
25 13 29
25 14 23
25 15 58
25 16 8
25 17 18
25 18 16
25 19 6
25 20 7
25 21 5
25 22 9
25 23 35
25 24 9
26 0 62
26 1 13
26 2 52
26 3 5
26 4 50
26 5 28
26 6 9
26 7 22
26 8 49
26 9 54
26 10 24
26 11 1
26 12 8
26 13 59
26 14 4
26 15 33
26 16 11
26 17 6
26 18 44
26 19 14
26 20 10
26 21 22
26 22 11
26 23 52
26 24 65
26 25 52
27 0 53
27 1 64
27 2 13
27 3 41
27 4 32
27 5 11
27 6 54
27 7 4
27 8 49
27 9 3
27 10 45
27 11 39
27 12 3
27 13 4
27 14 26
27 15 48
27 16 26
27 17 32
27 18 33
27 19 30
27 20 7
27 21 34
27 22 52
27 23 57
27 24 23
27 25 27
27 26 10
28 0 12
28 1 47
28 2 44
28 3 60
28 4 17
28 5 6
28 6 5
28 7 29
28 8 26
28 9 36
28 10 40
28 11 29
28 12 52
28 13 56
28 14 57
28 15 6
28 16 21
28 17 1
28 18 34
28 19 11
28 20 5
28 21 61
28 22 46
28 23 47
28 24 11
28 25 58
28 26 34
28 27 57
29 0 45
29 1 48
29 2 14
29 3 59
29 4 37
29 5 58
29 6 26
29 7 38
29 8 63
29 9 15
29 10 29
29 11 38
29 12 32
29 13 1
29 14 14
29 15 19
29 16 13
29 17 5
29 18 21
29 19 25
29 20 11
29 21 53
29 22 58
29 23 1
29 24 22
29 25 12
29 26 32
29 27 31
29 28 35
30 0 16
30 1 31
30 2 38
30 3 21
30 4 8
30 5 11
30 6 21
30 7 43
30 8 40
30 9 34
30 10 28
30 11 49
30 12 42
30 13 14
30 14 54
30 15 42
30 16 9
30 17 10
30 18 19
30 19 13
30 20 20
30 21 11
30 22 35
30 23 42
30 24 26
30 25 9
30 26 60
30 27 59
30 28 10
30 29 45
31 0 8
31 1 17
31 2 41
31 3 45
31 4 42
31 5 7
31 6 24
31 7 48
31 8 1
31 9 63
31 10 51
31 11 28
31 12 65
31 13 47
31 14 14
31 15 22
31 16 16
31 17 9
31 18 25
31 19 53
31 20 4
31 21 48
31 22 49
31 23 3
31 24 26
31 25 61
31 26 22
31 27 59
31 28 6
31 29 53
31 30 58
32 0 56
32 1 64
32 2 55
32 3 23
32 4 38
32 5 44
32 6 49
32 7 18
32 8 6
32 9 42
32 10 3
32 11 25
32 12 64
32 13 18
32 14 5
32 15 34
32 16 29
32 17 62
32 18 30
32 19 46
32 20 37
32 21 17
32 22 33
32 23 7
32 24 6
32 25 65
32 26 46
32 27 62
32 28 19
32 29 20
32 30 38
32 31 53
